p cnf 7230 16
-905 -1204 -1308 0
642 903 -1306 0
640 1113 -1304 0
636 1153 -1302 0
905 -1309 0
-642 -1307 0
-640 -1305 0
-636 -1303 0
1308 1309 0
1306 1307 0
1304 1305 0
1302 1303 0
1204 -1309 0
-903 -1307 0
-1113 -1305 0
-1153 -1303 0
